--- Job EVCS_15_C1.gms Start 05/11/22 14:45:19 34.3.0 rac355f3 WEX-WEI x86 64bit/MS Windows
--- Applying:
    C:\GAMS\34\gmsprmNT.txt
--- GAMS Parameters defined
    Input "C:\Users\kaspe\OneDrive\Documents\UiO\MASTEROPPGAVE\GAMS -Models\Scenario C\EVCS_15_C1.gms"
    ScrDir "C:\Users\kaspe\OneDrive\Documents\UiO\MASTEROPPGAVE\GAMS -Models\Scenario C\225a\"
    SysDir C:\GAMS\34\
    LogOption 2
Licensee: Small MUD - 5 User License                     S210208|0002AO-WIN
          University of Oslo, Institute for Technology Systems      DC15723
          C:\Users\kaspe\OneDrive\Documents\GAMS\gamslice.txt
          License Admin: Arild Hemstad, arild.hemstad@its.uio.no           
GAMS 34.3.0   Copyright (C) 1987-2021 GAMS Development. All rights reserved
--- Starting compilation
--- EVCS_15_C1.gms(36) 6 Mb
--- . demand_winter.tsv(276336) 7 Mb
--- EVCS_15_C1.gms(42) 7 Mb
--- . Prices_Winter.tsv(34542) 8 Mb
--- EVCS_15_C1.gms(231) 8 Mb
--- Starting execution: elapsed 0:00:00.828
--- EVCS_15_C1.gms(311005) 11 Mb
--- Generating MIP model optimal_generation
--- EVCS_15_C1.gms(311101) 125 Mb
---   518,134 rows  276,348 columns  1,381,690 non-zeroes
--- Executing CPLEX (Solvelink=2): elapsed 0:00:06.728

IBM ILOG CPLEX   34.3.0 rac355f3 Released Feb 25, 2021 WEI x86 64bit/MS Window

--- GAMS/Cplex licensed for continuous and discrete problems.
--- Space for names approximately 23.94 Mb
--- Use option 'names no' to turn use of names off
--- GMO memory 153.50 Mb (peak 155.61 Mb)
--- Dictionary memory 0.00 Mb
--- Cplex 20.1.0.0 link memory 11.20 Mb (peak 57.37 Mb)
--- Starting Cplex

Version identifier: 20.1.0.0 | 2020-11-10 | 9bedb6d68
CPXPARAM_Advance                                 0
CPXPARAM_Threads                                 1
CPXPARAM_MIP_Display                             4
CPXPARAM_MIP_Tolerances_AbsMIPGap                0
Tried aggregator 1 time.
LP Presolve eliminated 379969 rows and 103660 columns.
Aggregator did 34542 substitutions.
Reduced LP has 103622 rows, 138146 columns, and 345361 nonzeros.
Presolve time = 0.61 sec. (391.00 ticks)

Iteration log . . .
Iteration:     1   Dual objective     =        131713.540727
Perturbation started.
Iteration:  1010   Dual objective     =        134355.262298
Iteration:  2229   Dual objective     =        134615.377801
Iteration:  3446   Dual objective     =        134838.190521
Iteration:  4664   Dual objective     =        134970.105904
Iteration:  5888   Dual objective     =        135251.176935
Iteration:  7114   Dual objective     =        135448.977335
Iteration:  8347   Dual objective     =        135662.378386
Iteration:  9581   Dual objective     =        135816.960101
Iteration: 10820   Dual objective     =        135985.307841
Iteration: 12061   Dual objective     =        136099.194448
Iteration: 13305   Dual objective     =        136210.347439
Iteration: 14557   Dual objective     =        136442.453380
Iteration: 15810   Dual objective     =        136561.061020
Iteration: 17065   Dual objective     =        136733.771130
Iteration: 18324   Dual objective     =        136948.647291
Iteration: 19586   Dual objective     =        137161.226896
Iteration: 20851   Dual objective     =        137320.242247
Iteration: 22120   Dual objective     =        137495.526939
Iteration: 23395   Dual objective     =        137655.359352
Iteration: 24675   Dual objective     =        137842.775462
Iteration: 25963   Dual objective     =        138079.795126
Iteration: 27257   Dual objective     =        138227.645013
Iteration: 28555   Dual objective     =        138375.643590
Iteration: 29847   Dual objective     =        138375.791962
Iteration: 30830   Dual objective     =        164483.764709
Iteration: 32039   Dual objective     =        180951.065781
Iteration: 33270   Dual objective     =        198635.257917
Iteration: 34480   Dual objective     =        216580.346443
Iteration: 35079   Dual objective     =        249493.139248
Iteration: 36182   Dual objective     =        251485.604302
Iteration: 37308   Dual objective     =        253827.731254
Iteration: 38459   Dual objective     =        255774.188733
Iteration: 39629   Dual objective     =        257771.348129
Iteration: 40762   Dual objective     =        259287.573995
Iteration: 42006   Dual objective     =        260536.097537
Iteration: 43125   Dual objective     =        262644.369772
Iteration: 44302   Dual objective     =        263493.058060
Iteration: 45597   Dual objective     =        269532.895627
Iteration: 46950   Dual objective     =        277453.593148
Iteration: 48232   Dual objective     =        282797.559964
Iteration: 49457   Dual objective     =        285021.772160
Iteration: 50713   Dual objective     =        288353.558533
Iteration: 51945   Dual objective     =        290539.441226
Iteration: 53184   Dual objective     =        292647.580884
Iteration: 54170   Dual objective     =        293882.668488
Iteration: 55373   Dual objective     =        295273.927907
Iteration: 56583   Dual objective     =        296946.250130
Iteration: 57790   Dual objective     =        298947.498611
Iteration: 58977   Dual objective     =        300116.881022
Iteration: 60187   Dual objective     =        301497.352376
Iteration: 61375   Dual objective     =        302404.727481
Iteration: 61940   Dual objective     =        305495.187430
Iteration: 63349   Dual objective     =        307601.286072
Iteration: 64742   Dual objective     =        309191.243867
Iteration: 66104   Dual objective     =        310624.347039
Iteration: 67483   Dual objective     =        311563.319669
Iteration: 68829   Dual objective     =        312437.922973
Iteration: 69933   Dual objective     =        312707.870156
Iteration: 70290   Dual objective     =        312723.811107
Iteration: 70885   Dual objective     =        312725.354387
Iteration: 71176   Dual objective     =        312726.384808
Iteration: 71446   Dual objective     =        312727.634103
Iteration: 71718   Dual objective     =        312729.047862
Iteration: 72061   Dual objective     =        312731.720158
Iteration: 72295   Dual objective     =        312733.231178
Removing perturbation.

--- LP status (1): optimal.
--- Cplex Time: 6.50sec (det. 6579.28 ticks)


Optimal solution found
Objective:       312730.448074

--- Reading solution for model optimal_generation
--- Executing after solve: elapsed 0:00:17.379
--- EVCS_15_C1.gms(311103) 125 Mb
--- GDX File (execute_unload) C:\Users\kaspe\OneDrive\Documents\UiO\MASTEROPPGAVE\GAMS -Models\Scenario C\EVCS_15_C1.gdx
--- EVCS_15_C1.gms(311107) 125 Mb
--- GDX File (execute_unload) C:\Users\kaspe\OneDrive\Documents\UiO\MASTEROPPGAVE\GAMS -Models\Scenario C\EVCS_15_C1.gdx
--- EVCS_15_C1.gms(311108) 125 Mb
*** Status: Normal completion
--- Job EVCS_15_C1.gms Stop 05/11/22 14:45:39 elapsed 0:00:19.569
